269,107
406,131
593,285
406,131
363,88
269,107
311,286
487,265
539,452
654,459
912,860
927,745
598,662
469,618
539,452
487,265
593,285
681,226
839,188
1020,160
597,322
690,347
681,436
660,385
778,336
654,459
672,465
765,490
1055,596
1041,766
681,226
681,196
727,110
839,188
1036,462
1055,596
977,452
765,490
681,436
611,309
597,322
820,-21
